benchmarks_vrp/CMT5/tsp_classic/CMT5_11.vrp
NAME: CMT5_11
TYPE: CVRP
COMMENT: 1291.29 - Cluster Nr.11
DIMENSION: 12
CAPACITY: 200
EDGE_WEIGHT_TYPE: EUC_2D
NODE_COORD_TYPE: TWOD_COORDS
NODE_COORD_SECTION: 
4 52 33
5 56 39
10 35 35
6 52 26
11 50 35
9 56 37
2 55 34
8 58 27
7 50 30
12 61 33
1 56 37
3 57 29
DEPOT_SECTION: 
10
-1
DEMAND_SECTION: 
4 11
10 0
6 13
11 19
5 36
7 21
2 17
3 18
1 6
8 19
9 10
12 26
EOF
