benchmarks_vrp/CMT5/tsp_classic/CMT5_11.tour
NAME: CMT5_11 solution
TYPE: TOUR
TOUR_SECTION:
10 7 6 8 3 12 5 1 9 2 4 11 -1
-1
EOF